186 5
10 10 10 10 10 

0 0 0 0 0 0 3 2 14 26 
0 0 0 0 0 0 2 3 8 
4 1 0 0 0 0 1 4 
3 10 0 0 0 0 3 12 10 5 
3 9 0 0 0 0 1 6 
2 6 0 0 0 0 1 7 
7 10 0 0 0 0 2 9 108 
7 8 0 0 0 0 1 9 
8 3 0 0 0 0 1 11 
3 9 0 0 0 0 1 11 
2 10 0 0 0 0 1 13 
2 9 0 0 0 0 1 13 
0 0 0 0 0 0 1 38 
0 0 0 0 0 0 2 15 118 
1 0 9 0 0 0 2 19 16 
4 0 5 0 0 0 1 17 
4 0 10 0 0 0 2 24 18 
4 0 5 0 0 0 2 23 20 
8 0 7 0 0 0 2 24 23 
1 0 10 0 0 0 1 21 
6 0 7 0 0 0 1 22 
10 0 10 0 0 0 1 25 
6 0 6 0 0 0 1 25 
1 0 6 0 0 0 1 25 
0 0 0 0 0 0 1 38 
0 0 0 0 0 0 2 27 28 
6 5 0 0 0 0 3 31 29 102 
9 6 0 0 0 0 2 31 30 
7 1 0 0 0 0 1 30 
5 10 0 0 0 0 1 32 
1 7 0 0 0 0 1 32 
5 10 0 0 0 0 2 34 33 
6 10 0 0 0 0 1 35 
4 7 0 0 0 0 1 35 
4 10 0 0 0 0 1 36 
3 9 0 0 0 0 1 37 
0 0 0 0 0 0 1 38 
0 0 0 0 0 0 3 39 51 63 
0 0 0 0 0 0 2 40 42 
10 0 0 0 2 0 1 41 
10 0 0 0 8 0 2 47 43 
1 0 0 0 9 0 2 47 43 
6 0 0 0 5 0 1 44 
1 0 0 0 7 0 1 45 
4 0 0 0 7 0 1 46 
1 0 0 0 7 0 3 49 48 53 
4 0 0 0 10 0 2 49 48 
8 0 0 0 10 0 1 50 
2 0 0 0 10 0 1 50 
0 0 0 0 0 0 1 75 
0 0 0 0 0 0 2 52 54 
7 0 1 0 0 0 2 57 53 
4 0 10 0 0 0 1 55 
4 0 4 0 0 0 2 59 58 
10 0 10 0 0 0 1 56 
10 0 7 0 0 0 1 58 
4 0 9 0 0 0 1 58 
10 0 10 0 0 0 1 60 
7 0 8 0 0 0 1 60 
1 0 6 0 0 0 2 61 158 
10 0 10 0 0 0 1 62 
0 0 0 0 0 0 1 75 
0 0 0 0 0 0 1 64 
9 4 0 0 0 0 3 69 66 65 
10 9 0 0 0 0 2 68 67 
8 8 0 0 0 0 1 67 
9 7 0 0 0 0 1 70 
6 8 0 0 0 0 1 70 
9 9 0 0 0 0 1 70 
8 10 0 0 0 0 2 71 140 
1 5 0 0 0 0 1 72 
8 6 0 0 0 0 1 73 
7 9 0 0 0 0 1 74 
0 0 0 0 0 0 1 75 
0 0 0 0 0 0 3 76 88 100 
0 0 0 0 0 0 1 77 
4 0 0 3 0 0 1 78 
9 0 0 7 0 0 2 84 79 
3 0 0 7 0 0 2 82 80 
1 0 0 8 0 0 2 86 81 
9 0 0 8 0 0 1 83 
1 0 0 10 0 0 1 83 
10 0 0 10 0 0 1 85 
2 0 0 8 0 0 2 86 164 
5 0 0 7 0 0 1 87 
1 0 0 7 0 0 1 87 
0 0 0 0 0 0 1 112 
0 0 0 0 0 0 1 89 
8 0 0 0 0 4 1 90 
7 0 0 0 0 9 2 93 91 
2 0 0 0 0 10 2 92 169 
5 0 0 0 0 5 2 95 94 
8 0 0 0 0 7 2 95 94 
9 0 0 0 0 7 2 98 97 
7 0 0 0 0 10 1 96 
6 0 0 0 0 10 1 97 
5 0 0 0 0 5 1 99 
2 0 0 0 0 8 1 99 
0 0 0 0 0 0 1 112 
0 0 0 0 0 0 2 101 103 
8 0 0 0 6 0 2 106 102 
3 0 0 0 6 0 2 110 104 
4 0 0 0 8 0 2 110 107 
1 0 0 0 8 0 1 105 
2 0 0 0 9 0 1 107 
2 0 0 0 7 0 1 107 
2 0 0 0 6 0 2 108 126 
8 0 0 0 6 0 1 109 
1 0 0 0 10 0 1 111 
5 0 0 0 9 0 1 111 
0 0 0 0 0 0 1 112 
0 0 0 0 0 0 3 113 125 137 
0 0 0 0 0 0 1 114 
7 2 0 0 0 0 2 116 115 
7 9 0 0 0 0 2 122 117 
6 8 0 0 0 0 2 119 118 
2 10 0 0 0 0 2 118 126 
5 8 0 0 0 0 1 120 
3 6 0 0 0 0 1 120 
4 7 0 0 0 0 1 121 
5 6 0 0 0 0 1 123 
1 10 0 0 0 0 1 123 
4 9 0 0 0 0 1 124 
0 0 0 0 0 0 1 149 
0 0 0 0 0 0 2 126 135 
2 0 1 0 0 0 1 127 
10 0 8 0 0 0 2 128 138 
5 0 5 0 0 0 2 131 129 
7 0 10 0 0 0 1 130 
4 0 6 0 0 0 2 134 132 
4 0 8 0 0 0 2 134 132 
1 0 10 0 0 0 1 133 
7 0 10 0 0 0 1 136 
7 0 10 0 0 0 1 136 
3 0 7 0 0 0 1 136 
0 0 0 0 0 0 1 149 
0 0 0 0 0 0 1 138 
9 0 0 4 0 0 2 142 139 
6 0 0 5 0 0 1 140 
8 0 0 10 0 0 1 141 
6 0 0 8 0 0 3 147 146 143 
10 0 0 6 0 0 2 147 146 
7 0 0 10 0 0 1 144 
1 0 0 10 0 0 1 145 
4 0 0 7 0 0 1 148 
3 0 0 10 0 0 2 148 159 
2 0 0 5 0 0 1 148 
0 0 0 0 0 0 1 149 
0 0 0 0 0 0 3 150 162 174 
0 0 0 0 0 0 3 151 157 158 
9 0 0 0 0 1 2 160 152 
4 0 0 0 0 10 1 153 
2 0 0 0 0 8 1 154 
1 0 0 0 0 9 1 155 
6 0 0 0 0 7 1 156 
9 0 0 0 0 7 1 159 
9 0 0 0 0 9 1 159 
6 0 0 0 0 9 2 159 182 
8 0 0 0 0 6 1 161 
7 0 0 0 0 9 1 161 
0 0 0 0 0 0 1 186 
0 0 0 0 0 0 2 163 169 
9 0 0 4 0 0 2 168 164 
5 0 0 3 0 0 1 165 
5 0 0 7 0 0 2 172 166 
9 0 0 6 0 0 1 167 
1 0 0 7 0 0 1 170 
9 0 0 10 0 0 1 170 
7 0 0 8 0 0 2 170 178 
8 0 0 10 0 0 1 171 
9 0 0 10 0 0 1 173 
10 0 0 10 0 0 1 173 
0 0 0 0 0 0 1 186 
0 0 0 0 0 0 1 175 
8 0 0 0 0 7 1 176 
8 0 0 0 0 4 1 177 
5 0 0 0 0 10 2 181 178 
7 0 0 0 0 7 3 184 183 179 
5 0 0 0 0 10 1 180 
8 0 0 0 0 8 1 182 
4 0 0 0 0 4 1 183 
6 0 0 0 0 10 1 185 
9 0 0 0 0 10 1 185 
1 0 0 0 0 5 1 185 
0 0 0 0 0 0 1 186 
0 0 0 0 0 0 0 
